20
1 0 11
2 0 10
3 1 9
4 3 3
5 0 9
5 2 3
5 3 10
6 2 3
6 3 4
7 2 6
7 4 6
8 2 7
8 3 10
8 4 11
8 6 11
8 7 11
9 3 8
9 4 9
9 8 3
10 0 8
10 1 4
10 3 8
10 4 4
10 7 1
10 9 10
11 1 2
11 2 9
11 3 8
11 4 3
11 7 2
11 8 11
11 10 1
12 1 6
12 6 6
12 9 10
12 10 5
12 11 9
13 0 10
13 1 3
13 3 5
13 5 4
13 7 5
13 11 2
13 12 3
14 5 4
14 7 9
14 8 10
14 10 5
14 11 5
14 12 2
14 13 1
15 3 4
15 4 11
15 5 11
15 6 6
15 8 5
15 10 6
15 11 10
15 14 5
16 0 4
16 1 2
16 2 1
16 5 11
16 7 7
16 8 3
16 10 6
16 11 1
16 13 11
16 15 10
17 1 10
17 2 7
17 4 10
17 5 2
17 7 8
17 9 2
17 11 7
17 13 7
17 14 7
18 0 1
18 1 1
18 2 7
18 3 7
18 6 11
18 8 9
18 10 1
18 14 4
18 15 2
18 17 5
19 6 3
19 7 3
19 8 5
19 10 4
19 16 8
19 18 7
